cliques=[{4,8,11,10,6,3,14,5,1,0,2,13,15,9,12,7},{4,8,11,6,10,3,14,5,1,0,2,13,15,9,12,7},{8,4,11,6,10,3,14,5,1,2,0,13,15,9,12,7},{4,8,11,6,10,3,14,5,1,0,2,13,15,9,12,7},{4,8,11,6,10,3,14,5,1,0,2,13,15,9,12,7},{4,8,11,6,10,3,14,5,1,0,2,13,15,9,12,7},{166,198,230,6,70,118,134,246,54,38,86,102,182,150,22,214},{11,4,8,6,10,3,14,5,1,0,2,13,15,9,12,7},{8,4,11,6,10,3,14,5,1,0,2,13,15,9,12,7},{4,8,11,6,10,3,14,5,1,0,2,13,15,9,12,7},{8,4,11,10,6,3,14,5,1,0,2,13,15,9,12,7},{11,4,8,6,10,3,14,5,1,0,2,13,15,9,12,7},{4,8,11,6,10,3,14,5,1,0,2,13,15,9,12,7},{11,4,8,6,10,3,14,5,1,0,2,13,15,9,12,7},{4,8,11,10,6,14,3,5,1,0,2,13,15,9,12,7},{4,8,11,6,10,3,14,5,1,0,2,13,15,9,12,7},{112,48,32,192,176,160,240,208,0,16,96,80,128,144,64,224},{119,85,187,255,170,204,34,221,0,238,102,68,51,17,153,136},{50,130,34,18,66,2,162,98,194,178,226,210,82,114,242,146},{243,195,3,115,99,35,147,227,67,19,163,83,131,179,211,51},{4,84,132,244,196,180,36,148,116,228,20,164,212,68,52,100},{85,53,181,213,117,149,5,37,197,21,133,69,229,245,101,165},{166,198,230,6,70,118,134,246,54,38,86,102,182,150,22,214},{119,247,215,71,231,23,135,103,151,199,39,167,87,183,55,7},{168,8,88,232,40,184,104,152,248,72,200,216,56,120,136,24},{105,57,137,73,233,185,201,89,41,25,9,217,169,249,121,153},{234,10,122,170,74,218,26,250,90,106,138,186,58,154,42,202},{11,43,187,123,219,91,171,139,59,155,235,251,203,27,107,75},{172,220,92,44,124,252,140,204,108,76,236,188,28,12,156,60},{93,45,205,109,77,141,157,189,221,13,61,125,253,173,29,237},{105,195,45,240,135,90,180,15,150,210,30,120,75,60,225,165},{166,241,181,31,91,196,76,106,226,151,61,46,211,121,136},{43,45,32,44,40,33,34,35,37,38,36,41,47,39,46,42},{43,45,32,44,40,33,35,34,37,38,36,41,47,39,46,42},{43,45,32,44,40,33,34,35,37,38,36,41,47,39,46,42},{43,45,32,44,40,33,35,34,37,38,36,41,47,39,46,42},{43,45,32,44,40,33,34,35,38,37,36,41,47,39,46,42},{43,45,32,44,40,33,35,34,37,38,36,41,47,39,46,42},{166,198,230,6,70,118,134,246,54,38,86,102,182,150,22,214},{43,45,32,44,40,33,35,34,37,38,36,41,47,39,46,42},{43,45,32,44,40,33,34,35,37,38,36,41,47,39,46,42},{43,45,32,44,40,33,34,35,37,38,36,41,47,39,46,42},{43,45,32,44,40,33,34,35,37,38,36,41,47,39,46,42},{43,45,32,44,40,33,34,35,37,38,36,41,47,39,46,42},{43,45,32,44,40,33,34,35,37,38,36,41,47,39,46,42},{43,45,32,44,40,33,34,35,37,38,36,41,47,39,46,42},{43,45,32,44,40,33,34,35,37,38,36,41,47,39,46,42},{43,45,32,44,40,33,34,35,37,38,36,41,47,39,46,42},{57,63,53,50,48,49,54,59,61,62,56,58,51,60,52,55},{177,241,65,145,33,49,113,1,193,209,161,81,17,225,97,129},{220,84,50,33,118,254,152,16,135,67,169,186,203,237,101},{119,85,187,255,170,204,34,221,0,238,102,68,51,17,153,136},{57,63,53,50,48,49,54,59,61,62,56,58,51,60,52,55},{85,53,181,213,117,149,5,37,197,21,133,69,229,245,101,165},{166,198,230,6,70,118,134,246,54,38,86,102,182,150,22,214},{119,247,215,71,231,23,135,103,151,199,39,167,87,183,55,7},{168,8,88,232,40,184,104,152,248,72,200,216,56,120,136,24},{105,57,137,73,233,185,201,89,41,25,9,217,169,249,121,153},{234,10,122,170,74,218,26,250,90,106,138,186,58,154,42,202},{11,43,187,123,219,91,139,171,59,155,235,251,203,27,107,75},{172,220,92,44,124,252,140,204,108,76,236,188,28,12,156,60},{93,45,205,109,77,141,157,189,221,13,61,125,253,173,29,237},{57,63,53,50,48,49,54,59,61,62,56,58,60,51,52,55},{57,63,53,50,48,49,59,54,61,62,56,58,51,60,52,55},{112,32,48,192,176,160,240,208,0,16,96,80,128,144,64,224},{73,65,70,71,77,74,66,67,76,78,72,79,68,69,64,75},{73,65,70,71,77,74,66,67,76,78,72,79,68,69,64,75},{243,195,3,115,99,35,147,227,67,19,163,83,131,179,211,51},{119,85,187,255,170,204,34,221,0,238,102,68,51,17,153,136},{85,53,181,213,117,149,5,37,197,21,133,69,229,245,101,165},{166,198,230,6,70,118,134,246,54,38,86,102,182,150,22,214},{73,65,71,70,77,74,66,67,76,78,72,79,68,69,64,75},{168,8,88,232,40,184,104,152,248,72,200,216,56,120,136,24},{73,65,70,71,77,74,66,67,76,78,72,79,69,68,64,75},{234,10,122,170,74,218,26,250,90,138,106,186,58,154,42,202},{11,43,187,123,219,91,171,139,59,155,235,251,203,27,75,107},{172,220,92,44,124,252,140,204,108,76,236,188,28,12,156,60},{73,65,70,71,77,74,66,67,76,78,72,79,69,68,64,75},{73,65,70,71,77,74,66,67,76,78,72,79,68,69,64,75},{73,65,70,71,77,74,66,67,76,78,72,79,68,69,64,75},{95,85,84,93,88,92,91,94,89,86,90,80,83,82,81,87},{95,85,84,93,88,92,91,94,89,86,90,80,83,82,81,87},{95,85,84,93,88,92,91,94,89,86,90,80,83,82,81,87},{95,85,84,93,88,92,91,94,89,86,90,80,83,82,81,87},{95,85,84,93,88,92,91,94,89,86,90,80,83,82,81,87},{95,85,84,93,88,92,91,94,89,90,86,80,83,82,81,87},{166,198,230,6,70,118,134,246,54,38,86,102,182,150,22,214},{95,85,84,93,88,92,91,94,89,90,86,80,83,82,81,87},{95,85,84,93,88,92,91,94,89,90,86,80,83,82,81,87},{95,85,84,93,88,92,91,94,89,86,90,80,83,82,81,87},{95,85,84,93,88,92,91,94,89,90,86,80,83,82,81,87},{95,85,84,93,88,92,91,94,89,86,90,80,83,82,81,87},{95,85,84,93,88,92,91,94,89,86,90,80,83,82,81,87},{93,45,205,109,77,141,157,189,221,13,61,125,253,173,29,237},{95,85,84,93,88,92,91,94,89,86,90,80,83,82,81,87},{95,85,84,93,88,92,91,94,89,86,90,80,83,82,81,87},{112,32,48,192,176,160,240,208,0,16,96,80,128,144,64,224},{177,241,65,145,33,49,113,1,193,209,161,81,17,225,97,129},{50,130,34,18,66,2,162,98,194,178,226,210,82,114,242,146},{243,195,3,115,99,35,147,227,67,19,163,83,131,179,211,51},{168,32,219,117,49,134,185,66,236,151,83,253,100,202},{85,53,181,213,117,149,5,37,197,21,133,69,229,245,101,165},{166,198,230,6,70,118,134,246,54,38,86,102,182,150,22,214},{137,205,35,18,222,1,171,103,86,188,120,154,69,239,52},{168,8,88,232,40,184,104,152,248,72,200,216,56,120,136,24},{105,57,137,73,233,185,201,89,41,25,9,217,169,249,121,153},{234,10,122,170,74,218,26,250,90,106,138,186,58,154,42,202},{11,43,187,123,219,91,139,171,59,155,235,251,203,27,107,75},{172,220,92,44,124,252,140,204,108,76,236,188,28,12,156,60},{45,205,93,109,141,77,157,189,221,13,61,125,253,173,29,237},{105,109,99,104,108,103,96,102,106,98,110,107,111,101,100,97},{105,109,99,104,108,103,96,102,106,98,110,107,111,101,100,97},{119,112,123,117,115,124,126,118,122,113,116,114,125,127,120,121},{119,112,123,117,115,124,126,118,122,113,116,114,125,127,120,121},{119,112,123,117,115,124,126,118,122,113,116,114,125,127,120,121},{243,195,3,115,99,35,147,227,67,19,163,83,131,179,211,51},{119,112,123,117,115,124,126,118,122,113,116,114,125,127,120,121},{119,112,123,117,115,124,126,118,122,113,116,114,125,127,120,121},{166,198,230,6,70,118,134,246,54,38,86,102,182,150,22,214},{119,112,123,117,115,124,126,118,122,113,116,125,114,127,120,121},{119,112,123,117,115,124,126,118,122,113,116,114,125,127,120,121},{119,112,123,117,115,124,126,118,122,113,116,114,125,127,120,121},{119,112,123,117,115,124,126,118,122,113,116,114,125,127,120,121},{119,112,123,117,115,124,126,118,122,113,116,114,125,127,120,121},{172,220,92,44,124,252,140,204,108,76,236,188,28,12,156,60},{119,112,123,117,124,115,126,118,122,113,116,125,114,127,120,121},{119,112,123,117,124,115,126,118,122,113,116,125,114,127,120,121},{119,112,123,117,115,124,126,118,122,113,116,114,125,127,120,121},{137,132,130,141,134,140,139,143,135,142,138,131,128,133,136,129},{137,132,130,141,134,140,139,143,135,142,138,131,128,133,136,129},{137,132,130,141,134,140,139,143,135,142,138,131,128,133,136,129},{137,132,130,141,134,140,139,143,135,142,138,131,128,133,136,129},{137,132,130,141,134,140,139,143,135,142,138,131,128,133,136,129},{43,88,73,118,208,193,13,103,163,178,148,28,133,58},{166,198,230,6,70,118,134,246,54,38,86,102,182,150,22,214},{137,132,130,141,134,140,139,143,135,142,138,131,128,133,136,129},{168,8,88,232,40,184,104,152,248,72,200,216,56,120,136,24},{137,132,141,130,134,140,139,143,135,142,138,131,128,133,136,129},{137,132,130,141,134,140,139,143,135,142,138,131,128,133,136,129},{11,43,187,123,219,91,139,171,59,155,235,251,203,27,107,75},{172,220,92,44,124,252,140,204,108,76,236,188,28,12,156,60},{137,132,141,130,134,140,139,143,135,142,138,131,128,133,136,129},{137,132,130,141,134,140,139,143,135,142,138,131,128,133,136,129},{137,132,130,141,134,140,139,143,135,142,138,131,128,133,136,129},{112,32,48,192,176,160,240,208,0,16,96,80,128,144,64,224},{177,241,145,65,33,49,113,1,193,209,161,81,17,225,97,129},{50,130,34,18,66,2,162,178,194,98,226,210,82,114,242,146},{243,195,3,115,99,35,147,227,67,19,163,83,131,179,211,51},{43,88,73,118,208,193,13,103,163,178,148,28,133,58},{85,53,181,213,117,149,5,37,197,21,133,69,229,245,101,165},{166,198,230,6,70,118,134,246,54,38,86,102,182,150,22,214},{166,241,181,31,91,196,76,106,226,151,61,46,211,121,136},{168,8,88,232,40,184,104,152,248,72,200,216,56,120,136,24},{105,57,137,73,233,185,201,89,41,25,9,217,169,249,153,121},{234,10,122,170,74,218,26,250,90,138,106,186,58,154,42,202},{11,43,187,123,219,91,171,139,59,155,235,251,203,27,107,75},{172,220,92,44,124,252,140,204,108,76,236,188,28,12,156,60},{45,205,93,157,109,77,141,189,221,13,61,125,253,173,29,237},{145,157,149,152,147,151,148,158,150,155,159,144,154,156,146,153},{145,157,149,152,147,151,148,158,150,155,159,144,154,156,146,153},{112,32,48,192,176,160,240,208,0,16,80,96,128,144,64,224},{177,241,145,65,33,49,113,1,193,209,161,81,17,225,97,129},{50,130,34,18,66,2,162,98,194,178,226,210,82,114,242,146},{243,195,3,115,99,35,147,227,67,19,163,83,131,179,211,51},{119,44,14,149,74,134,104,209,89,59,194,164,179,29,224},{85,53,181,213,117,149,5,37,197,21,133,69,229,245,165,101},{166,198,230,6,70,118,134,246,54,38,86,102,182,150,22,214},{119,247,215,71,231,23,135,103,151,199,39,167,87,183,55,7},{168,8,88,232,40,184,104,152,248,72,200,216,56,120,136,24},{105,57,137,73,233,185,201,89,41,25,9,217,169,249,121,153},{234,10,170,122,74,218,26,250,90,138,106,186,58,154,42,202},{11,43,187,123,219,91,171,139,59,155,235,251,203,27,107,75},{172,220,92,44,124,252,140,204,108,76,236,188,28,12,156,60},{45,205,93,141,109,77,157,189,221,13,61,125,253,173,29,237},{168,172,166,160,170,171,162,163,167,169,164,173,161,175,165,174},{168,172,166,160,170,171,162,163,167,169,164,173,161,175,165,174},{112,32,48,176,192,160,240,208,0,16,96,80,128,144,64,224},{177,187,181,176,184,185,189,180,182,178,188,186,179,183,190,191},{43,88,73,118,208,193,13,103,163,178,148,28,133,58},{243,195,3,115,99,35,147,227,67,19,163,83,131,179,211,51},{177,187,181,176,184,185,189,180,182,178,188,186,179,183,190,191},{177,187,181,176,184,185,189,180,182,178,188,186,179,183,190,191},{166,198,230,6,70,118,134,246,54,38,86,102,182,150,22,214},{177,187,181,176,184,185,189,180,182,178,188,186,179,183,190,191},{168,8,88,232,40,184,104,152,248,72,200,216,56,120,136,24},{105,57,137,73,233,185,201,89,41,25,9,217,169,249,121,153},{177,187,181,176,184,185,189,180,182,178,188,186,179,183,190,191},{177,187,181,176,184,185,189,180,182,178,188,186,179,183,190,191},{172,220,92,44,124,252,140,204,108,76,236,188,28,12,156,60},{177,187,181,176,184,185,189,180,182,178,188,186,179,183,190,191},{177,187,181,176,184,185,189,180,182,178,188,186,179,183,190,191},{177,187,181,176,184,185,189,180,182,178,188,186,179,183,190,191},{198,195,205,192,204,196,201,193,200,194,197,199,206,207,203,202},{198,195,205,192,204,196,201,193,200,194,197,199,206,207,203,202},{198,195,205,192,204,196,201,193,200,194,197,199,206,207,203,202},{243,195,3,115,99,35,147,227,67,19,163,83,131,179,211,51},{198,195,205,192,204,196,201,193,200,194,197,199,206,207,203,202},{198,195,205,192,204,196,201,193,200,194,197,199,206,207,203,202},{166,198,230,6,70,118,134,246,54,38,86,102,182,150,22,214},{198,195,205,192,204,201,196,193,200,194,199,197,206,207,203,202},{198,195,205,192,204,196,201,193,200,194,197,199,206,207,203,202},{105,57,137,73,233,185,201,89,41,25,9,217,169,249,121,153},{198,195,205,192,204,196,201,193,200,194,197,199,206,207,203,202},{11,43,187,123,219,91,139,171,59,155,235,251,203,27,107,75},{198,195,205,192,204,196,201,193,200,194,197,199,206,207,203,202},{205,45,93,109,77,141,157,221,189,13,61,125,253,173,29,237},{198,195,205,192,204,196,201,193,200,194,197,199,206,207,203,202},{198,195,205,192,204,201,196,193,200,194,197,199,206,207,203,202},{220,215,213,219,221,222,208,218,209,223,216,210,217,212,211,214},{220,215,213,219,221,222,208,218,209,223,216,217,210,212,211,214},{220,215,213,219,221,222,208,218,209,223,216,210,217,212,211,214},{220,215,213,219,221,222,208,218,209,223,216,217,210,212,211,214},{220,215,213,219,221,222,208,218,209,223,216,210,217,212,211,214},{220,215,213,219,221,222,208,218,209,223,216,217,210,212,211,214},{166,198,230,6,70,118,134,246,54,38,86,102,182,150,22,214},{220,215,213,219,221,222,208,218,209,223,216,217,210,212,211,214},{220,215,213,219,221,222,208,218,209,223,216,210,217,212,211,214},{105,57,137,73,233,185,201,89,41,25,9,217,169,249,121,153},{220,215,213,219,221,222,208,218,209,223,216,210,217,212,211,214},{220,215,219,213,221,222,208,218,209,223,216,210,217,212,211,214},{172,220,92,44,124,252,140,204,108,76,236,188,28,12,156,60},{119,85,187,255,170,204,221,34,0,238,102,68,51,17,153,136},{220,215,213,219,221,222,208,218,209,223,216,210,217,212,211,214},{220,215,219,213,221,222,208,218,209,223,216,210,217,212,211,214},{112,32,48,192,176,160,240,208,0,16,96,80,128,144,64,224},{177,241,65,145,33,49,113,1,193,209,161,81,225,17,97,129},{50,130,34,18,66,2,162,194,98,178,226,210,82,114,242,146},{243,195,3,115,99,35,147,227,67,19,163,83,131,179,211,51},{168,63,198,243,93,123,213,108,78,138,228,153,183},{85,53,181,213,117,149,5,37,197,21,133,69,229,245,165,101},{166,198,230,6,70,118,134,246,54,38,86,102,182,150,22,214},{119,247,215,71,231,23,135,103,151,199,39,167,87,183,55,7},{168,8,88,232,40,184,104,152,248,72,200,216,56,120,136,24},{105,57,137,73,233,185,201,89,41,25,9,217,169,249,121,153},{234,10,170,122,74,218,26,250,90,106,138,186,58,154,42,202},{11,43,187,123,219,91,139,171,59,155,235,251,203,27,107,75},{172,220,92,44,124,252,204,140,108,76,236,188,28,12,156,60},{220,84,50,33,118,254,152,16,135,67,169,186,203,237,101},{119,85,187,255,170,204,34,221,0,238,102,68,51,17,153,136},{234,230,232,231,233,238,227,226,236,228,235,229,237,225,239,224},{247,243,241,255,252,240,244,254,246,250,248,242,251,253,249,245},{247,241,243,255,252,244,240,254,246,250,248,242,251,253,249,245},{247,241,243,255,252,254,240,244,246,250,248,242,251,253,249,245},{243,195,3,115,99,35,147,227,67,19,163,83,131,179,211,51},{247,241,243,255,252,244,240,254,246,250,248,242,251,253,249,245},{247,243,241,255,252,240,244,254,246,250,248,242,251,253,249,245},{166,198,230,6,70,118,134,246,54,38,86,102,182,150,22,214},{247,241,243,255,252,240,244,254,246,250,248,251,242,253,249,245},{168,8,88,232,40,184,104,152,248,72,200,216,56,120,136,24},{105,57,137,73,233,185,201,89,41,25,9,217,169,249,121,153},{234,10,122,170,74,218,26,250,90,106,138,186,58,154,42,202},{11,43,187,123,219,91,139,171,59,155,235,251,203,27,107,75},{172,220,92,44,124,252,140,204,108,76,236,188,28,12,156,60},{205,45,93,109,77,141,157,221,189,13,61,125,253,173,29,237},{247,241,243,255,252,254,240,244,246,250,248,242,251,253,249,245},{247,241,243,255,252,240,244,254,246,250,248,251,242,253,249,245}];
nr_cliques=256;
